p cnf 22 8
e 1 0
a 2 3 4 0
e 5 0
a 6 7 8 0
e 9 0
a 10 11 0
e 12 13 14 0
a 15 16 0
e 17 18 0
a 19 0
e 20 21 22 0
8 1 0
-14 -12 -13 0
-7 12 4 0
4 -8 -19 -10 0
-3 2 16 0
1 2 11 14 17 0
12 -21 4 -10 -5 0
22 -8 14 -16 -5 0
